(set-logic ALL)
(declare-const x1_VAR Int)
(declare-const y1_VAR Int)
(declare-const x2_VAR Int)
(declare-const y2_VAR Int)
(assert (= x1_VAR y1_VAR))
(assert (not (= y1_VAR 0)))
(check-sat)
(get-value (x1_VAR))
(get-value (y1_VAR))
(get-value (x2_VAR))
(get-value (y2_VAR))
